(set-logic QF_S)
(declare-fun var0 () String)
(assert (str.in.re var0 (re.++ (re.+ (re.* (str.to.re "0"))) (re.++ (re.* (re.union (str.to.re "111") (str.to.re "22"))) (re.++ (re.+ (re.+ (str.to.re "3"))) (re.++ (re.+ (re.union (str.to.re "4") (str.to.re "5"))) (re.++ (re.+ (re.union (str.to.re "666") (str.to.re "7"))) (re.+ (re.union (str.to.re "8") (str.to.re "99"))))))))))
(assert (not (str.in.re var0 (re.++ (re.union (re.union (str.to.re "00") (str.to.re "1")) (re.* (str.to.re "222"))) (re.++ (re.* (re.union (str.to.re "3") (str.to.re "44"))) (re.++ (re.* (re.+ (str.to.re "55"))) (re.++ (re.+ (re.union (str.to.re "66") (str.to.re "77"))) (re.++ (re.+ (re.+ (str.to.re "888"))) (re.+ (re.* (str.to.re "9")))))))))))
(check-sat)